db/data/306921497612245300836998147361129832284.z3.out
-------------------
2500.269578093
